NAME: tsp40_16
COMMENT: 40-tsp problem (Padberg/Rinaldi)
TYPE: TSP
DIMENSION: 40
EDGE_WEIGHT_TYPE : EUC_2D
NODE_COORD_SECTION
1 34 23
2 0 34
3 3 10
4 30 32
5 18 23
6 29 1
7 8 15
8 15 16
9 22 25
10 19 22
11 2 37
12 6 5
13 3 35
14 32 7
15 30 5
16 31 20
17 18 17
18 18 7
19 34 18
20 14 36
21 32 31
22 38 8
23 9 27
24 12 36
25 32 21
26 4 25
27 11 9
28 1 22
29 15 36
30 7 2
31 27 23
32 21 39
33 36 28
34 26 40
35 20 3
36 11 6
37 13 23
38 0 26
39 7 2
40 23 10
